
  22   10
  10   10   10   10   10   10   10   10   10   10

   0   0   0   0   0   0   0   0   0   0   0   2 2 3 
  10   0   0  10   0   0   0   0   0   0   0   4 10 9 7 6 
   6   0   0   0  10   0   0   0   0   0   0   3 9 8 4 
   6   0   0  10   0   0   0   0   0   0   0   1 5 
   2   0   0   0   0   0   0   0   0  10   0   2 12 7 
   5   0   0   0   0   0  10   0   0   0   0   2 12 8 
   5   0   0   0   0   0   0   0   0  10   0   2 15 11 
   9   0   0   0   0   0   0   0   0  10   0   2 15 11 
   4   0   0  10   0   0   0   0   0   0   0   2 15 11 
   2   0   0   0   0   0   0   0   0   0  10   2 12 11 
   9   0   0   0   0  10   0   0   0   0   0   2 14 13 
   5   0  10   0   0   0   0   0   0   0   0   1 13 
   7   0   0   0   0   0   0   0  10   0   0   1 16 
   6   0   0   0  10   0   0   0   0   0   0   1 16 
   9   0   0   0   0   0   0   0   0  10   0   1 16 
   3  10   0   0   0   0   0   0   0   0   0   2 19 17 
   9   0  10   0   0   0   0   0   0   0   0   2 20 18 
   9   0   0   0   0   0   0   0  10   0   0   1 21 
   3   0  10   0   0   0   0   0   0   0   0   1 20 
   4   0   0   0   0   0   0   0   0   0  10   1 22
   3   0   0   0   0   0   0   0   0  10   0   1 22
   0   0   0   0   0   0   0   0   0   0   0   0 
